# Optimized geometry from test.out
! B3LYP RIJCOSX cc-pVDZ def2/J D3BJ TIGHTSCF Grid5 TIGHTOPT FREQ
%scf
        MaxIter 125
end
%pal nprocs 24 end
%output
Print[ P_Hirshfeld] 1
end
%plots
dim1 200
dim2 200
dim3 200
Format Gaussian_Cube
ElDens("electrondensity");
end
*xyz 0 1
  C   3.55379219743254      0.07776197499392     -0.00985481384407
  C   2.85212817406792      0.55127907642628     -1.12390522775260
  C   2.85845478219102     -0.39567796314486      1.10824565681658
  C   1.45793021298932      0.55224624774208     -1.11550732552810
  C   1.46425255879021     -0.39652717573755      1.10775511621133
  C   0.74319573754603      0.07787665193630     -0.00182231118015
  C   -0.74017029315829      0.07762500954395      0.00235820094215
  C   -1.45508220171747      0.54549823646894      1.11866688697309
  C   -1.46103795891644     -0.39055564152399     -1.10994677304618
  C   -2.84930197125728      0.54433764648086      1.12689281500836
  C   -2.85526322141701     -0.38999149906817     -1.11049538284650
  C   -3.55077344257145      0.07704933488456      0.01013166116360
  C   8.78048946369112     -4.07438152063513      0.03441722342723
  C   8.78054083270787      4.22950113905302     -0.07444995047024
  C   -8.77752462422208     -4.07493402749750     -0.03870258740399
  C   -8.77725791633090      4.22889319044010      0.07699681363405
  C   -6.41655255419713     -3.35337423483369     -0.05974850297579
  C   -5.40304232027102     -2.40431497050228     -0.05188524191540
  C   -7.77885454821651     -2.97770831617409     -0.04013582689619
  C   6.41955536187138     -3.35279746563200      0.05580997768051
  C   -5.78157447182660     -1.05686284700596     -0.02531654332063
  C   7.78185001539858     -2.97712420033065      0.03666909425041
  C   5.40605790235725     -2.40372826066547      0.04900244885443
  C   -8.14853585949754     -1.62512386846319     -0.01333292871976
  C   -7.14631085589529     -0.65086053876361     -0.00503291485728
  C   -5.78145067008018      1.21075575177055      0.05545997533721
  C   -7.14624029388265      0.80477899685821      0.03887640643624
  C   8.15152239311982     -1.62451250270853      0.01117060433870
  C   -5.40281239467870      2.55818966385163      0.08119794839595
  C   5.78455937258842     -1.05622537175760      0.02400926473468
  C   -8.14841286684522      1.77906926875898      0.04973612750224
  C   7.14929313591781     -0.65023237478631      0.00390814509212
  C   -6.41627024994236      3.50727230380160      0.09182023777547
  C   -7.77862412727296      3.13164227668358      0.07567626901438
  C   7.14925884383567      0.80545497420749     -0.03853535559674
  C   5.78448728355069      1.21152097970763     -0.05421847170549
  C   8.15150836946171      1.77968047114378     -0.04895613678221
  C   5.40598113124087      2.55903761187660     -0.07817293124716
  C   7.78183151043958      3.13230867566958     -0.07338676989686
  C   6.41950472429354      3.50805048940305     -0.08829101745066
  H   3.40588847240249      0.91898710705232     -1.98913623508014
  H   3.41711262833548     -0.76352072320928      1.97025584029012
  H   0.91368302990572      0.94131894842284     -1.97784023420062
  H   -0.91097489520379      0.92994664811962      1.98316387672330
  H   -3.40325901731103      0.90726347041577      1.99401905302953
  H   -3.41386303794425     -0.75312178077914     -1.97454744088022
  H   -6.18390500951340     -4.41848241627334     -0.07713247390736
  H   -4.35249760905262     -2.69679283102235     -0.06099973613514
  H   6.18689097123120     -4.41792088088623      0.07193767516669
  H   4.35554175925377     -2.69628679560817      0.05766810424424
  H   -9.20306256388660     -1.34905200274802      0.00700236629997
  H   -4.35224140205019      2.85064211032704      0.08752121626392
  H   9.20604996601318     -1.34842308604622     -0.00890740002305
  H   -9.20299575457531      1.50302580495054      0.03211629874814
  H   -6.18354963177032      4.57237279936290      0.10865870419827
  H   9.20607713561332      1.50353091502406     -0.03220639861244
  H   4.35545995687986      2.85165569438929     -0.08357830814431
  H   6.18684773140768      4.57318444696022     -0.10384718927047
  N   -4.97315026610928      0.07694406115094      0.01390088213902
  N   4.97611656783873      0.07765907801257     -0.01388234713391
  O   10.06530802133032     -3.63164218875520      0.00130564845831
  O   10.06542752940349      3.78666963614604     -0.04541974854340
  O   8.50834570854983     -5.25884369285311      0.05611278455952
  O   8.50843593799611      5.41396345344358     -0.09663452617218
  O   -8.50543808065141     -5.25937857576190     -0.06195295251891
  O   -10.06213085117097      3.78620349269638      0.04510721753097
  O   -10.06232816329607     -3.63220268540476     -0.00447212332616
  O   -8.50509339403763      5.41332162746965      0.10015546794395
  H   10.61400892049300     -4.43606249546750      0.00156663095481
  H   10.61419433875651      4.59104004095453     -0.04819417949148
  H   -10.61082960728322      4.59062085653365      0.04781443220990
  H   -10.61103648463949     -4.43661536883385     -0.00554310353701
  H   -0.92173733125093     -0.77474871528637     -1.97749904411308
  H   0.92487342674155     -0.78561857876861      1.97313138217650
*
